\ENCODING=ISO-8859-1
\Problem name: IloCplex

Maximize
 obj: x1 + 2 x2 + 3 x3 + 3 x4 + 2 x5 + 2 x6 + 2 x7 + x8 + x9
Subject To
 c1: x1 + x2 + x3  = 8
 c2: x4 + x5 + x6  = 5
 c3: x7 + x8 + x9  = 7
 c4: x1 + x4 + x7  = 4
 c5: x2 + x5 + x8  = 7
 c6: x3 + x6 + x9  = 9
End
